p cnf 10 50
9 -3 2 0
-10 -7 -9 0
-8 5 -1 0
-2 7 -6 0
-5 -7 8 0
2 -1 6 0
-2 10 1 0
6 7 2 0
3 8 4 0
9 2 10 0
-5 -7 -8 0
1 -5 7 0
10 -4 -8 0
3 1 -2 0
3 6 -9 0
1 -9 5 0
-2 3 5 0
-3 -10 -7 0
7 10 -8 0
9 -1 -2 0
5 6 1 0
-6 -7 -8 0
-8 4 -6 0
2 10 -7 0
4 -10 2 0
7 10 8 0
8 4 -3 0
-7 9 -8 0
5 -3 6 0
-1 -10 9 0
-9 -2 8 0
6 -8 9 0
9 -1 -10 0
2 -9 1 0
-2 8 4 0
3 6 -7 0
7 2 8 0
-5 -10 8 0
-2 5 -1 0
-3 9 -10 0
6 -10 -2 0
8 1 4 0
5 2 -10 0
-1 9 3 0
-7 -6 9 0
-7 -2 6 0
-6 -2 -7 0
-6 4 10 0
-1 9 -4 0
-9 1 7 0